% Logging successfully configured
%%%mzn-stat: initTime=0.040366695
%%%mzn-stat: objective=745
%%%mzn-stat: nodes=501
%%%mzn-stat: restarts=0
%%%mzn-stat: peakDepth=409
%%%mzn-stat: solveTime=0.031835551
%%%mzn-stat: variables=849
%%%mzn-stat: propagators=595
%%%mzn-stat: failures=71
%%%mzn-stat: propagations=3806
%%%mzn-stat: nogoods=71
%%%mzn-stat: numAtomicConstraintsPropagated=0
%%%mzn-stat: circuitNumber1PropagationsTotal=441
%%%mzn-stat: circuitNumber1CircuitConflicts=54
%%%mzn-stat: circuitNumber1AlldiffConflicts=2
%%%mzn-stat: circuitNumber1TotalFixedEdgesAtConflict=2494
%%%mzn-stat: circuitNumber1NumberOfConflicts=56
%%%mzn-stat: circuitNumber1GacPrunings=720
%%%mzn-stat: circuitNumber1PropagationsThatGacPruned=218
%%%mzn-stat: circuitNumber1TotalPruningHallSetSize=1678
%%%mzn-stat: circuitNumber1NumberOfPruningExplanations=720
%%%mzn-stat: circuitNumber1MaxPruningHallSetSize=26
%%%mzn-stat: circuitNumber1TotalSccSizeAtPruning=945
%%%mzn-stat: circuitNumber1NumberOfSccPruningCalls=218
%%%mzn-stat: circuitNumber1TotalVarsInvolvedInPruning=633
%%%mzn-stat: circuitNumber1MaxValuesPrunedFromSingleVar=4
%%%mzn-stat: circuitNumber1HallCircuitChecks=853
%%%mzn-stat: circuitNumber1HallCircuitPrunings=15
%%%mzn-stat: circuitNumber1CircuitPreventPrunings=178
%%%mzn-stat: AverageConflictSize=30.281690140845072
%%%mzn-stat: NumUnitNogoodsLearned=0
%%%mzn-stat: AverageLearnedNogoodLength=29.901408450704224
%%%mzn-stat: AverageBacktrackAmount=0
%%%mzn-stat: AverageLbd=23.295774647887324
%%%mzn-stat: 2AutonomousSearchNumBackupCalled=375
%%%mzn-stat: 2AutonomousSearchNumPredicatesRemoved=0
%%%mzn-stat: 2AutonomousSearchNumCalls=376
%%%mzn-stat: 2AutonomousSearchNumPredicatesAdded=1159
%%%mzn-stat: 2AutonomousSearchAverageSizeOfHeap=3.0824468085106385
%%%mzn-stat: 2AutonomousSearchNumAssignedPredicatesEncountered=1159
%%%mzn-stat-end
maxleg = 745;
succ = array1d(1..50,[2, 12, 4, 6, 3, 7, 11, 9, 10, 14, 15, 13, 28, 19, 16, 18, 8, 22, 23, 24, 1, 26, 25, 35, 29, 45, 5, 36, 37, 44, 50, 17, 20, 32, 42, 33, 21, 49, 34, 30, 27, 43, 46, 41, 48, 31, 39, 38, 47, 40]);
% time elapsed: 7.19 s
----------
%%%mzn-stat: initTime=0.040366695
%%%mzn-stat: objective=435
%%%mzn-stat: nodes=995
%%%mzn-stat: restarts=0
%%%mzn-stat: peakDepth=423
%%%mzn-stat: solveTime=0.060381415
%%%mzn-stat: variables=849
%%%mzn-stat: propagators=595
%%%mzn-stat: failures=136
%%%mzn-stat: propagations=6211
%%%mzn-stat: nogoods=136
%%%mzn-stat: numAtomicConstraintsPropagated=0
%%%mzn-stat: circuitNumber1PropagationsTotal=802
%%%mzn-stat: circuitNumber1CircuitConflicts=110
%%%mzn-stat: circuitNumber1AlldiffConflicts=2
%%%mzn-stat: circuitNumber1TotalFixedEdgesAtConflict=5094
%%%mzn-stat: circuitNumber1NumberOfConflicts=112
%%%mzn-stat: circuitNumber1GacPrunings=1245
%%%mzn-stat: circuitNumber1PropagationsThatGacPruned=393
%%%mzn-stat: circuitNumber1TotalPruningHallSetSize=2639
%%%mzn-stat: circuitNumber1NumberOfPruningExplanations=1245
%%%mzn-stat: circuitNumber1MaxPruningHallSetSize=26
%%%mzn-stat: circuitNumber1TotalSccSizeAtPruning=1408
%%%mzn-stat: circuitNumber1NumberOfSccPruningCalls=393
%%%mzn-stat: circuitNumber1TotalVarsInvolvedInPruning=1105
%%%mzn-stat: circuitNumber1MaxValuesPrunedFromSingleVar=4
%%%mzn-stat: circuitNumber1HallCircuitChecks=1427
%%%mzn-stat: circuitNumber1HallCircuitPrunings=21
%%%mzn-stat: circuitNumber1CircuitPreventPrunings=328
%%%mzn-stat: AverageConflictSize=33.24264705882353
%%%mzn-stat: NumUnitNogoodsLearned=0
%%%mzn-stat: AverageLearnedNogoodLength=32.24264705882353
%%%mzn-stat: AverageBacktrackAmount=0
%%%mzn-stat: AverageLbd=24.919117647058822
%%%mzn-stat: 2AutonomousSearchNumBackupCalled=765
%%%mzn-stat: 2AutonomousSearchNumPredicatesRemoved=0
%%%mzn-stat: 2AutonomousSearchNumCalls=767
%%%mzn-stat: 2AutonomousSearchNumPredicatesAdded=1775
%%%mzn-stat: 2AutonomousSearchAverageSizeOfHeap=3.0234680573663626
%%%mzn-stat: 2AutonomousSearchNumAssignedPredicatesEncountered=2319
%%%mzn-stat-end
maxleg = 435;
succ = array1d(1..50,[2, 12, 4, 6, 3, 7, 11, 9, 10, 14, 15, 13, 28, 19, 16, 18, 8, 22, 23, 24, 1, 26, 25, 35, 29, 45, 5, 46, 37, 44, 50, 17, 36, 32, 31, 21, 33, 49, 34, 30, 27, 20, 42, 41, 48, 43, 39, 38, 47, 40]);
% time elapsed: 7.20 s
----------
%%%mzn-stat: initTime=0.040366695
%%%mzn-stat: objective=346
%%%mzn-stat: nodes=1609
%%%mzn-stat: restarts=0
%%%mzn-stat: peakDepth=423
%%%mzn-stat: solveTime=0.143755833
%%%mzn-stat: variables=849
%%%mzn-stat: propagators=595
%%%mzn-stat: failures=331
%%%mzn-stat: propagations=12351
%%%mzn-stat: nogoods=331
%%%mzn-stat: numAtomicConstraintsPropagated=0
%%%mzn-stat: circuitNumber1PropagationsTotal=1796
%%%mzn-stat: circuitNumber1CircuitConflicts=291
%%%mzn-stat: circuitNumber1AlldiffConflicts=5
%%%mzn-stat: circuitNumber1TotalFixedEdgesAtConflict=13487
%%%mzn-stat: circuitNumber1NumberOfConflicts=296
%%%mzn-stat: circuitNumber1GacPrunings=2590
%%%mzn-stat: circuitNumber1PropagationsThatGacPruned=884
%%%mzn-stat: circuitNumber1TotalPruningHallSetSize=5304
%%%mzn-stat: circuitNumber1NumberOfPruningExplanations=2590
%%%mzn-stat: circuitNumber1MaxPruningHallSetSize=26
%%%mzn-stat: circuitNumber1TotalSccSizeAtPruning=2903
%%%mzn-stat: circuitNumber1NumberOfSccPruningCalls=884
%%%mzn-stat: circuitNumber1TotalVarsInvolvedInPruning=2304
%%%mzn-stat: circuitNumber1MaxValuesPrunedFromSingleVar=4
%%%mzn-stat: circuitNumber1HallCircuitChecks=3345
%%%mzn-stat: circuitNumber1HallCircuitPrunings=25
%%%mzn-stat: circuitNumber1CircuitPreventPrunings=650
%%%mzn-stat: AverageConflictSize=35.52567975830816
%%%mzn-stat: NumUnitNogoodsLearned=0
%%%mzn-stat: AverageLearnedNogoodLength=35.531722054380666
%%%mzn-stat: AverageBacktrackAmount=0
%%%mzn-stat: AverageLbd=26.045317220543808
%%%mzn-stat: 2AutonomousSearchNumBackupCalled=1105
%%%mzn-stat: 2AutonomousSearchNumPredicatesRemoved=0
%%%mzn-stat: 2AutonomousSearchNumCalls=1108
%%%mzn-stat: 2AutonomousSearchNumPredicatesAdded=2729
%%%mzn-stat: 2AutonomousSearchAverageSizeOfHeap=3.2454873646209386
%%%mzn-stat: 2AutonomousSearchNumAssignedPredicatesEncountered=3596
%%%mzn-stat-end
maxleg = 346;
succ = array1d(1..50,[2, 12, 4, 6, 3, 7, 11, 9, 10, 14, 15, 13, 28, 19, 16, 18, 8, 22, 23, 24, 1, 27, 25, 35, 30, 38, 29, 46, 37, 40, 36, 17, 44, 32, 42, 33, 21, 45, 34, 50, 26, 49, 20, 41, 48, 43, 39, 5, 47, 31]);
% time elapsed: 7.29 s
----------
%%%mzn-stat: initTime=0.040366695
%%%mzn-stat: objective=331
%%%mzn-stat: nodes=2018
%%%mzn-stat: restarts=0
%%%mzn-stat: peakDepth=423
%%%mzn-stat: solveTime=0.166352975
%%%mzn-stat: variables=849
%%%mzn-stat: propagators=595
%%%mzn-stat: failures=372
%%%mzn-stat: propagations=14598
%%%mzn-stat: nogoods=372
%%%mzn-stat: numAtomicConstraintsPropagated=0
%%%mzn-stat: circuitNumber1PropagationsTotal=2049
%%%mzn-stat: circuitNumber1CircuitConflicts=311
%%%mzn-stat: circuitNumber1AlldiffConflicts=6
%%%mzn-stat: circuitNumber1TotalFixedEdgesAtConflict=14366
%%%mzn-stat: circuitNumber1NumberOfConflicts=317
%%%mzn-stat: circuitNumber1GacPrunings=3332
%%%mzn-stat: circuitNumber1PropagationsThatGacPruned=1017
%%%mzn-stat: circuitNumber1TotalPruningHallSetSize=8452
%%%mzn-stat: circuitNumber1NumberOfPruningExplanations=3332
%%%mzn-stat: circuitNumber1MaxPruningHallSetSize=42
%%%mzn-stat: circuitNumber1TotalSccSizeAtPruning=4343
%%%mzn-stat: circuitNumber1NumberOfSccPruningCalls=1017
%%%mzn-stat: circuitNumber1TotalVarsInvolvedInPruning=2857
%%%mzn-stat: circuitNumber1MaxValuesPrunedFromSingleVar=4
%%%mzn-stat: circuitNumber1HallCircuitChecks=3646
%%%mzn-stat: circuitNumber1HallCircuitPrunings=31
%%%mzn-stat: circuitNumber1CircuitPreventPrunings=760
%%%mzn-stat: AverageConflictSize=33.733870967741936
%%%mzn-stat: NumUnitNogoodsLearned=0
%%%mzn-stat: AverageLearnedNogoodLength=36.3494623655914
%%%mzn-stat: AverageBacktrackAmount=0
%%%mzn-stat: AverageLbd=26.134408602150536
%%%mzn-stat: 2AutonomousSearchNumBackupCalled=1438
%%%mzn-stat: 2AutonomousSearchNumPredicatesRemoved=0
%%%mzn-stat: 2AutonomousSearchNumCalls=1442
%%%mzn-stat: 2AutonomousSearchNumPredicatesAdded=3694
%%%mzn-stat: 2AutonomousSearchAverageSizeOfHeap=3.5055478502080444
%%%mzn-stat: 2AutonomousSearchNumAssignedPredicatesEncountered=5055
%%%mzn-stat-end
maxleg = 331;
succ = array1d(1..50,[2, 12, 5, 6, 45, 3, 11, 4, 8, 9, 15, 13, 28, 10, 16, 18, 32, 22, 14, 24, 1, 27, 19, 35, 23, 38, 29, 36, 37, 40, 50, 20, 44, 17, 42, 33, 21, 49, 34, 7, 25, 43, 46, 41, 48, 31, 39, 26, 47, 30]);
% time elapsed: 7.31 s
----------
%%%mzn-stat: initTime=0.040366695
%%%mzn-stat: objective=309
%%%mzn-stat: nodes=24140
%%%mzn-stat: restarts=0
%%%mzn-stat: peakDepth=423
%%%mzn-stat: solveTime=12.163932336
%%%mzn-stat: variables=849
%%%mzn-stat: propagators=595
%%%mzn-stat: failures=22100
%%%mzn-stat: propagations=774683
%%%mzn-stat: nogoods=22100
%%%mzn-stat: numAtomicConstraintsPropagated=0
%%%mzn-stat: circuitNumber1PropagationsTotal=121040
%%%mzn-stat: circuitNumber1CircuitConflicts=19803
%%%mzn-stat: circuitNumber1AlldiffConflicts=147
%%%mzn-stat: circuitNumber1TotalFixedEdgesAtConflict=890222
%%%mzn-stat: circuitNumber1NumberOfConflicts=19950
%%%mzn-stat: circuitNumber1GacPrunings=210608
%%%mzn-stat: circuitNumber1PropagationsThatGacPruned=68396
%%%mzn-stat: circuitNumber1TotalPruningHallSetSize=508315
%%%mzn-stat: circuitNumber1NumberOfPruningExplanations=210608
%%%mzn-stat: circuitNumber1MaxPruningHallSetSize=43
%%%mzn-stat: circuitNumber1TotalSccSizeAtPruning=246652
%%%mzn-stat: circuitNumber1NumberOfSccPruningCalls=68396
%%%mzn-stat: circuitNumber1TotalVarsInvolvedInPruning=176998
%%%mzn-stat: circuitNumber1MaxValuesPrunedFromSingleVar=7
%%%mzn-stat: circuitNumber1HallCircuitChecks=222304
%%%mzn-stat: circuitNumber1HallCircuitPrunings=15880
%%%mzn-stat: circuitNumber1CircuitPreventPrunings=61104
%%%mzn-stat: AverageConflictSize=15.44660633484163
%%%mzn-stat: NumUnitNogoodsLearned=0
%%%mzn-stat: AverageLearnedNogoodLength=46.40276018099547
%%%mzn-stat: AverageBacktrackAmount=0
%%%mzn-stat: AverageLbd=26.35239819004525
%%%mzn-stat: 2AutonomousSearchNumBackupCalled=1776
%%%mzn-stat: 2AutonomousSearchNumPredicatesRemoved=0
%%%mzn-stat: 2AutonomousSearchNumCalls=1781
%%%mzn-stat: 2AutonomousSearchNumPredicatesAdded=5129
%%%mzn-stat: 2AutonomousSearchAverageSizeOfHeap=3.930937675463223
%%%mzn-stat: 2AutonomousSearchNumAssignedPredicatesEncountered=7001
%%%mzn-stat-end
maxleg = 309;
succ = array1d(1..50,[2, 12, 5, 6, 45, 7, 11, 4, 8, 9, 15, 13, 28, 10, 16, 18, 32, 22, 14, 34, 1, 27, 19, 20, 23, 41, 29, 36, 37, 40, 35, 39, 30, 17, 42, 33, 44, 3, 47, 50, 25, 43, 46, 21, 48, 24, 49, 26, 38, 31]);
% time elapsed: 19.30 s
----------
%%%mzn-stat: initTime=0.040366695
%%%mzn-stat: objective=305
%%%mzn-stat: nodes=24515
%%%mzn-stat: restarts=0
%%%mzn-stat: peakDepth=423
%%%mzn-stat: solveTime=12.169633408
%%%mzn-stat: variables=849
%%%mzn-stat: propagators=595
%%%mzn-stat: failures=22101
%%%mzn-stat: propagations=775875
%%%mzn-stat: nogoods=22101
%%%mzn-stat: numAtomicConstraintsPropagated=0
%%%mzn-stat: circuitNumber1PropagationsTotal=121131
%%%mzn-stat: circuitNumber1CircuitConflicts=19803
%%%mzn-stat: circuitNumber1AlldiffConflicts=147
%%%mzn-stat: circuitNumber1TotalFixedEdgesAtConflict=890222
%%%mzn-stat: circuitNumber1NumberOfConflicts=19950
%%%mzn-stat: circuitNumber1GacPrunings=210823
%%%mzn-stat: circuitNumber1PropagationsThatGacPruned=68443
%%%mzn-stat: circuitNumber1TotalPruningHallSetSize=509112
%%%mzn-stat: circuitNumber1NumberOfPruningExplanations=210823
%%%mzn-stat: circuitNumber1MaxPruningHallSetSize=43
%%%mzn-stat: circuitNumber1TotalSccSizeAtPruning=246933
%%%mzn-stat: circuitNumber1NumberOfSccPruningCalls=68443
%%%mzn-stat: circuitNumber1TotalVarsInvolvedInPruning=177186
%%%mzn-stat: circuitNumber1MaxValuesPrunedFromSingleVar=7
%%%mzn-stat: circuitNumber1HallCircuitChecks=222429
%%%mzn-stat: circuitNumber1HallCircuitPrunings=15885
%%%mzn-stat: circuitNumber1CircuitPreventPrunings=61128
%%%mzn-stat: AverageConflictSize=15.446088412289036
%%%mzn-stat: NumUnitNogoodsLearned=0
%%%mzn-stat: AverageLearnedNogoodLength=46.400977331342474
%%%mzn-stat: AverageBacktrackAmount=0
%%%mzn-stat: AverageLbd=26.35143206189765
%%%mzn-stat: 2AutonomousSearchNumBackupCalled=2109
%%%mzn-stat: 2AutonomousSearchNumPredicatesRemoved=0
%%%mzn-stat: 2AutonomousSearchNumCalls=2115
%%%mzn-stat: 2AutonomousSearchNumPredicatesAdded=5212
%%%mzn-stat: 2AutonomousSearchAverageSizeOfHeap=4.230260047281324
%%%mzn-stat: 2AutonomousSearchNumAssignedPredicatesEncountered=8947
%%%mzn-stat-end
maxleg = 305;
succ = array1d(1..50,[2, 12, 5, 6, 45, 7, 11, 4, 8, 9, 15, 13, 28, 10, 16, 18, 32, 22, 14, 34, 1, 27, 19, 20, 23, 41, 29, 36, 37, 40, 35, 47, 30, 39, 42, 33, 44, 3, 17, 50, 25, 43, 46, 21, 48, 24, 49, 26, 38, 31]);
% time elapsed: 19.32 s
----------
==========
% time elapsed: 19.34 s
%%%mzn-stat: initTime=0.040366695
%%%mzn-stat: objective=305
%%%mzn-stat: nodes=24636
%%%mzn-stat: restarts=0
%%%mzn-stat: peakDepth=423
%%%mzn-stat: solveTime=12.200557708
%%%mzn-stat: variables=849
%%%mzn-stat: propagators=595
%%%mzn-stat: failures=22218
%%%mzn-stat: propagations=780631
%%%mzn-stat: nogoods=22218
%%%mzn-stat: numAtomicConstraintsPropagated=0
%%%mzn-stat: circuitNumber1PropagationsTotal=121669
%%%mzn-stat: circuitNumber1CircuitConflicts=19919
%%%mzn-stat: circuitNumber1AlldiffConflicts=147
%%%mzn-stat: circuitNumber1TotalFixedEdgesAtConflict=890921
%%%mzn-stat: circuitNumber1NumberOfConflicts=20066
%%%mzn-stat: circuitNumber1GacPrunings=211743
%%%mzn-stat: circuitNumber1PropagationsThatGacPruned=68744
%%%mzn-stat: circuitNumber1TotalPruningHallSetSize=510150
%%%mzn-stat: circuitNumber1NumberOfPruningExplanations=211743
%%%mzn-stat: circuitNumber1MaxPruningHallSetSize=43
%%%mzn-stat: circuitNumber1TotalSccSizeAtPruning=247354
%%%mzn-stat: circuitNumber1NumberOfSccPruningCalls=68744
%%%mzn-stat: circuitNumber1TotalVarsInvolvedInPruning=178105
%%%mzn-stat: circuitNumber1MaxValuesPrunedFromSingleVar=7
%%%mzn-stat: circuitNumber1HallCircuitChecks=223156
%%%mzn-stat: circuitNumber1HallCircuitPrunings=16020
%%%mzn-stat: circuitNumber1CircuitPreventPrunings=61426
%%%mzn-stat: AverageConflictSize=15.38581330452786
%%%mzn-stat: NumUnitNogoodsLearned=1
%%%mzn-stat: AverageLearnedNogoodLength=46.234134485552254
%%%mzn-stat: AverageBacktrackAmount=0
%%%mzn-stat: AverageLbd=26.229543613286523
%%%mzn-stat: 2AutonomousSearchNumBackupCalled=2109
%%%mzn-stat: 2AutonomousSearchNumPredicatesRemoved=0
%%%mzn-stat: 2AutonomousSearchNumCalls=2115
%%%mzn-stat: 2AutonomousSearchNumPredicatesAdded=5629
%%%mzn-stat: 2AutonomousSearchAverageSizeOfHeap=4.230260047281324
%%%mzn-stat: 2AutonomousSearchNumAssignedPredicatesEncountered=8947
%%%mzn-stat-end
